StringID   Type       x          y          demand     ReadyTime  DueDate    ServiceTime
D0         d              33.501    59.191      0.000      0.000     23.983      0.000
S0         f              33.501    59.191      0.000      0.000     23.983      0.000
S1         f              74.790    49.160      0.000      0.000     23.983      0.000
S2         f              63.400    40.020      0.000      0.000     23.983      0.000
C0         c              24.322    17.009      0.052     10.264     14.249      0.100
C1         c              55.364    49.893      0.092     13.186     17.416      0.100
C2         c              72.410    44.488      0.041     10.892     14.666      0.033
C3         c              58.645    40.648      0.037     14.999     18.479      0.067
C4         c              13.924    11.581      0.063     11.441     15.166      0.117

Q Vehicle fuel tank capacity /112.3500/
C Vehicle load capacity /1.0200/
r fuel consumption rate /0.4992/
g inverse refueling rate /0.0073/
v average Velocity /38.4700/
gv charging speed /137.2300/

--------------------
instance_id /18/
number of clusters /3/
working_startTime (hour) /8.00/
working_endTime (hour) /21.27/
instance_endTime (hour) /23.98/
service_time_type /random/
demand_type /random/
instance_type /R/
instance x range /[0.0, 100.0]/
instance y range /[0.0, 100.0]/
cs_time_to_depot (hour)/[1.1044977392803612,0.9232462622322993]/
